sifdecoder -A pc64.lnx.gfo -st   A2NNDNIL

 Problem name: A2NNDNIL

 Double precision version will be formed

 The objective function uses 2 linear groups
 
 There are 20004 linear equality constraints
 
 There are 15004 free variables
 There are 10000 variables bounded only from below 
 There are 35008 fixed variables
 
 
 File successfully decoded
 CUTEST: tools (double precision version) compiled successfully
 CUTEst: ipopt (double precision version) compiled successfully

******************************************************************************
This program contains Ipopt, a library for large-scale nonlinear optimization.
 Ipopt is released as open source code under the Eclipse Public License (EPL).
         For more information visit http://projects.coin-or.org/Ipopt
******************************************************************************

This is Ipopt version trunk, running with linear solver ma57.

Number of nonzeros in equality constraint Jacobian...:    79995
Number of nonzeros in inequality constraint Jacobian.:        0
Number of nonzeros in Lagrangian Hessian.............:    30004

Total number of variables............................:    25004
                     variables with only lower bounds:    10000
                variables with lower and upper bounds:        0
                     variables with only upper bounds:        0
Total number of equality constraints.................:    20004
Total number of inequality constraints...............:        0
        inequality constraints with only lower bounds:        0
   inequality constraints with lower and upper bounds:        0
        inequality constraints with only upper bounds:        0

iter    objective    inf_pr   inf_du lg(mu)  ||d||  lg(rg) alpha_du alpha_pr  ls
   0  4.9999900e-01 9.92e+01 6.22e-01  -1.0 0.00e+00    -  0.00e+00 0.00e+00   0
   1  7.2659788e-01 9.90e+01 1.08e+00  -1.0 1.14e+02    -  1.02e-03 2.02e-03f  1
   2  1.0238932e+00 9.89e+01 1.08e+00  -1.0 1.22e+02    -  1.71e-03 1.69e-03f  1
   3  1.4535237e+00 9.87e+01 1.08e+00  -1.0 7.93e+01    -  1.88e-03 2.01e-03f  1
   4  1.9230877e+00 9.85e+01 1.08e+00  -1.0 1.18e+02    -  1.89e-03 1.95e-03f  1
   5  2.6890849e+00 9.82e+01 1.07e+00  -1.0 8.90e+01    -  2.58e-03 2.89e-03f  1
   6  3.5937358e+00 9.79e+01 1.07e+00  -1.0 8.25e+01    -  2.90e-03 3.18e-03f  1
   7  5.0905088e+00 9.74e+01 2.37e+00  -1.0 7.26e+01    -  3.31e-03 5.08e-03f  1
   8  7.6345852e+00 9.67e+01 2.88e+00  -1.0 1.23e+01   0.0 4.86e-03 6.75e-03f  1
   9  1.2885835e+01 9.54e+01 3.03e+00  -1.0 1.54e+01  -0.5 8.56e-03 1.39e-02f  1
iter    objective    inf_pr   inf_du lg(mu)  ||d||  lg(rg) alpha_du alpha_pr  ls
  10  2.1872064e+01 9.38e+01 3.87e+00  -1.0 1.16e+01  -0.1 1.09e-02 1.66e-02f  1
  11  5.9187315e+01 9.02e+01 6.09e+00  -1.0 1.10e+01   0.4 1.55e-02 3.85e-02f  1
  12  1.3719536e+02 8.42e+01 7.41e+00  -1.0 1.14e+01  -0.1 2.93e-02 6.68e-02f  1
  13  6.2366263e+02 6.76e+01 2.46e+01  -1.0 9.05e+00   0.3 3.99e-02 1.97e-01h  1
  14  6.6334602e+02 6.38e+01 1.97e+01  -1.0 1.15e+01  -0.2 2.10e-01 5.68e-02h  1
  15  2.2830968e+03 3.14e+01 2.96e+01  -1.0 6.66e+00   0.3 2.17e-01 5.07e-01h  1
  16  2.0897687e+03 2.99e+01 3.86e+01  -1.0 1.26e+01  -0.2 6.58e-01 4.90e-02f  1
  17  2.7092597e+03 1.48e+01 5.96e+01  -1.0 3.47e+00   0.2 1.00e+00 5.04e-01h  1
  18  2.3606893e+03 1.39e+01 8.81e+01  -1.0 2.01e+01  -0.3 3.34e-01 6.10e-02f  1
  19  2.3563167e+03 1.13e+01 2.11e+02  -1.0 2.58e+00   0.2 1.00e+00 1.85e-01h  1
iter    objective    inf_pr   inf_du lg(mu)  ||d||  lg(rg) alpha_du alpha_pr  ls
  20  2.1266954e+03 1.08e+01 2.32e+02  -1.0 3.44e+01  -0.3 1.89e-01 4.39e-02f  1
  21  2.0856718e+03 8.48e+00 3.52e+02  -1.0 2.43e+00   0.1 1.00e+00 2.18e-01h  1
  22  2.2522674e+03 6.64e-01 4.90e+01  -1.0 1.11e+00   0.5 1.00e+00 9.22e-01h  1
  23  2.1274821e+03 5.33e-01 3.19e+03  -1.0 2.08e+00   0.1 1.00e+00 1.97e-01f  1
  24  2.0537615e+03 2.52e-01 3.67e+03  -1.0 6.47e-01   0.5 1.00e+00 5.28e-01f  1
  25  1.9505437e+03 1.99e-01 1.12e+04  -1.0 2.75e+00   0.0 1.00e+00 2.08e-01f  1
  26  1.8972770e+03 1.23e-01 1.69e+04  -1.0 7.39e-01   0.4 1.00e+00 3.85e-01f  1
  27  1.8043107e+03 9.93e-02 4.74e+04  -1.0 2.90e+00  -0.0 1.00e+00 1.90e-01f  1
  28  1.7489049e+03 5.67e-02 7.78e+04  -1.0 6.62e-01   0.4 1.00e+00 4.28e-01h  1
  29  1.6498908e+03 4.47e-02 4.83e+05  -1.0 3.34e+00  -0.1 1.00e+00 2.11e-01f  1
iter    objective    inf_pr   inf_du lg(mu)  ||d||  lg(rg) alpha_du alpha_pr  ls
  30  1.6260365e+03 3.67e-02 3.36e+06  -1.0 8.74e-01   0.3 1.00e+00 1.80e-01h  1
  31  1.5577218e+03 3.19e-02 1.69e+07  -1.0 4.17e+00  -0.1 9.68e-01 1.31e-01f  1
  32  1.5570353e+03 3.17e-02 1.51e+08  -1.0 9.54e-01   0.3 1.15e-01 4.94e-03h  1
  33  1.5529874e+03 3.15e-02 1.08e+09  -1.0 4.52e+00  -0.2 6.14e-02 7.87e-03f  1
  34  1.5529329e+03 3.15e-02 9.38e+10  -1.0 1.08e+00   0.2 4.60e-02 3.52e-04h  1
Reallocating memory for MA57: lfact (933456)
  35  1.4813605e+03 2.81e-02 1.43e+08  -1.0 5.87e+00  -0.2 9.98e-01 1.08e-01f  1
  36  1.3484242e+03 6.68e-03 3.00e+02  -1.0 1.04e+00   0.2 1.00e+00 7.62e-01f  1
  37  1.3478281e+03 6.68e-03 5.55e+08  -2.5 1.11e+01  -0.3 2.73e-03 4.95e-04f  1
  38  1.3459160e+03 6.66e-03 7.87e+07  -2.5 1.56e+00   0.1 8.58e-01 3.50e-03f  1
  39  9.7489274e+02 4.90e-04 6.96e+01  -2.5 4.75e-01   0.6 1.00e+00 9.26e-01f  1
iter    objective    inf_pr   inf_du lg(mu)  ||d||  lg(rg) alpha_du alpha_pr  ls
  40  8.7179991e+02 3.46e-04 1.10e+03  -3.8 2.06e+00   0.1 8.27e-01 2.94e-01f  1
  41  8.6273637e+02 3.21e-04 1.92e+03  -3.8 5.21e-01   0.5 1.00e+00 7.32e-02f  1
  42  8.6272543e+02 3.21e-04 2.88e+08  -3.8 2.10e+00   0.0 2.13e-04 3.67e-05f  1
  43  8.6270087e+02 3.21e-04 2.08e+03  -3.8 5.89e-01   0.5 1.00e+00 1.97e-04f  1
  44  8.0281579e+02 2.65e-04 1.72e+03  -3.8 2.45e+00  -0.0 1.00e+00 1.74e-01f  1
  45  7.7403933e+02 2.03e-04 1.59e+03  -3.8 7.22e-01   0.4 1.00e+00 2.33e-01f  1
  46  7.7402893e+02 2.03e-04 1.65e+09  -3.8 3.34e+00  -0.1 2.87e-03 2.82e-05f  1
  47  7.7400919e+02 2.03e-04 1.80e+04  -3.8 8.55e-01   0.4 1.00e+00 1.58e-04f  1
  48  7.3342149e+02 1.84e-04 1.89e+03  -3.8 3.91e+00  -0.1 1.00e+00 9.24e-02f  1
  49  7.1209909e+02 1.55e-04 1.74e+03  -3.8 8.60e-01   0.3 1.00e+00 1.61e-01f  1
iter    objective    inf_pr   inf_du lg(mu)  ||d||  lg(rg) alpha_du alpha_pr  ls
  50  6.8002004e+02 1.45e-04 1.93e+03  -3.8 4.97e+00  -0.2 9.51e-01 6.16e-02f  1
  51  6.6945423e+02 1.34e-04 1.92e+03  -3.8 1.08e+00   0.3 1.00e+00 7.45e-02f  1
  52  6.3699961e+02 1.28e-04 1.91e+03  -3.8 7.47e+00  -0.2 6.09e-01 5.09e-02f  1
  53  6.1682421e+02 1.10e-04 1.80e+03  -3.8 1.38e+00   0.2 1.00e+00 1.34e-01f  1
  54  5.9163601e+02 1.07e-04 1.84e+03  -3.8 1.18e+01  -0.3 3.97e-01 3.13e-02f  1
  55  5.6902851e+02 9.10e-05 1.77e+03  -3.8 1.60e+00   0.2 1.00e+00 1.50e-01f  1
  56  5.6896050e+02 9.10e-05 8.36e+06  -3.8 5.08e+01  -0.3 4.45e-05 5.26e-05f  1
  57  5.3459276e+02 7.27e-05 8.36e+06  -3.8 1.99e+00   0.1 8.23e-04 2.01e-01f  1
  58  5.3015520e+02 6.77e-05 2.49e+05  -3.8 6.31e-01   0.5 1.00e+00 6.79e-02f  1
  59  5.2298445e+02 6.52e-05 2.39e+05  -3.8 2.40e+00   0.1 7.64e-02 3.73e-02f  1
iter    objective    inf_pr   inf_du lg(mu)  ||d||  lg(rg) alpha_du alpha_pr  ls
  60  5.1662194e+02 7.39e-05 2.16e+05  -3.8 6.64e-01   0.5 1.00e+00 9.83e-02f  1
  61  5.0082766e+02 8.59e-05 2.00e+05  -3.8 3.04e+00  -0.0 2.69e-01 7.31e-02f  1
  62  4.9799156e+02 9.15e-05 1.92e+05  -3.8 8.17e-01   0.4 1.00e+00 4.08e-02f  1
  63  4.8312721e+02 9.88e-05 1.80e+05  -3.8 3.95e+00  -0.1 4.81e-01 6.10e-02f  1
  64  4.7661513e+02 1.08e-04 1.64e+05  -3.8 9.07e-01   0.4 1.00e+00 9.01e-02f  1
  65  4.5683160e+02 1.13e-04 1.52e+05  -3.8 3.53e+00  -0.1 8.91e-01 7.48e-02f  1
  66  4.4197247e+02 1.24e-04 1.23e+05  -3.8 8.75e-01   0.3 1.00e+00 1.90e-01f  1
  67  4.2618104e+02 1.24e-04 1.17e+05  -3.8 5.34e+00  -0.2 1.00e+00 4.64e-02f  1
  68  4.1633704e+02 1.25e-04 1.04e+05  -3.8 1.10e+00   0.3 1.00e+00 1.12e-01f  1
  69  3.9994566e+02 1.25e-04 1.00e+05  -3.8 7.89e+00  -0.2 7.18e-01 3.85e-02f  1
iter    objective    inf_pr   inf_du lg(mu)  ||d||  lg(rg) alpha_du alpha_pr  ls
  70  3.8396058e+02 1.22e-04 8.28e+04  -3.8 1.27e+00   0.2 1.00e+00 1.72e-01f  1
  71  3.6797926e+02 1.21e-04 7.98e+04  -3.8 1.01e+01  -0.3 4.15e-01 3.56e-02f  1
  72  3.5923852e+02 1.18e-04 7.20e+04  -3.8 1.48e+00   0.2 1.00e+00 9.85e-02f  1
  73  3.4807094e+02 1.17e-04 7.05e+04  -3.8 2.10e+01  -0.3 4.31e-02 1.96e-02f  1
  74  3.4467270e+02 1.16e-04 6.81e+04  -3.8 1.82e+00   0.1 1.00e+00 3.49e-02f  1
  75  3.3271834e+02 1.15e-04 6.72e+04  -3.8 6.46e+01  -0.4 1.44e-01 1.34e-02f  1
  76  3.3201716e+02 1.15e-04 6.67e+04  -3.8 1.63e+00   0.1 1.00e+00 7.53e-03f  1
  77  3.0074532e+02 7.71e-05 5.36e+03  -3.8 4.67e-01   0.5 1.00e+00 9.20e-01f  1
  78  2.9360305e+02 7.27e-05 5.03e+03  -3.8 2.21e+00   0.0 1.00e+00 6.17e-02f  1
  79  2.8387287e+02 5.49e-05 3.70e+03  -3.8 6.28e-01   0.4 1.00e+00 2.65e-01f  1
iter    objective    inf_pr   inf_du lg(mu)  ||d||  lg(rg) alpha_du alpha_pr  ls
  80  2.7658813e+02 5.23e-05 3.51e+03  -3.8 2.91e+00  -0.0 1.00e+00 5.14e-02f  1
  81  2.7658771e+02 5.23e-05 3.70e+08  -3.8 7.79e-01   0.4 1.03e-04 1.02e-05h  1
  82  2.7635557e+02 5.23e-05 3.51e+03  -3.8 3.68e+00  -0.1 1.00e+00 1.46e-03f  1
  83  2.5828298e+02 3.27e-05 2.09e+03  -3.8 8.71e-01   0.3 1.00e+00 4.05e-01f  1
  84  2.5070827e+02 3.14e-05 2.00e+03  -3.8 4.70e+00  -0.1 1.00e+00 4.26e-02f  1
Reallocating memory for MA57: lfact (3078369)
  85  2.3629677e+02 2.93e-05 1.92e+03  -3.8 5.92e+00  -0.2 1.00e+00 7.23e-02f  1
  86  2.3045683e+02 2.58e-05 1.81e+03  -3.8 1.05e+00   0.2 1.00e+00 1.28e-01f  1
  87  2.1833126e+02 2.43e-05 1.94e+03  -3.8 5.90e+00  -0.2 1.00e+00 6.27e-02f  1
  88  2.1103588e+02 2.06e-05 1.73e+03  -3.8 9.70e-01   0.2 1.00e+00 1.64e-01f  1
  89  1.9563575e+02 1.91e-05 1.88e+03  -3.8 6.69e+00  -0.3 8.94e-01 7.65e-02f  1
iter    objective    inf_pr   inf_du lg(mu)  ||d||  lg(rg) alpha_du alpha_pr  ls
  90  1.8977040e+02 1.69e-05 1.81e+03  -3.8 1.32e+00   0.1 1.00e+00 1.26e-01f  1
  91  1.8206434e+02 1.63e-05 1.90e+03  -3.8 9.68e+00  -0.3 6.07e-01 3.60e-02f  1
  92  1.7886901e+02 1.51e-05 1.91e+03  -3.8 1.13e+00   0.1 1.00e+00 8.01e-02f  1
  93  1.6459853e+02 1.43e-05 1.82e+03  -3.8 1.87e+01  -0.4 1.60e-01 5.46e-02f  1
  94  1.5976368e+02 1.30e-05 1.87e+03  -3.8 1.44e+00   0.0 1.00e+00 1.00e-01f  1
  95  1.5817572e+02 1.17e-05 1.86e+03  -3.8 4.27e-01   0.5 1.00e+00 1.05e-01f  1
  96  1.5161568e+02 1.03e-05 1.80e+03  -3.8 1.55e+00  -0.0 1.00e+00 1.32e-01f  1
  97  1.4798839e+02 8.10e-06 1.60e+03  -3.8 4.67e-01   0.4 1.00e+00 2.29e-01f  1
  98  1.4277468e+02 7.39e-06 1.88e+03  -3.8 2.02e+00  -0.1 1.00e+00 9.47e-02f  1
  99  1.3891213e+02 5.85e-06 1.60e+03  -3.8 5.76e-01   0.4 1.00e+00 2.27e-01f  1
iter    objective    inf_pr   inf_du lg(mu)  ||d||  lg(rg) alpha_du alpha_pr  ls
 100  1.3281474e+02 5.38e-06 1.89e+03  -3.8 2.74e+00  -0.1 1.00e+00 8.89e-02f  1
 101  1.2836286e+02 4.38e-06 1.64e+03  -3.8 7.22e-01   0.3 1.00e+00 2.11e-01f  1
 102  1.2393873e+02 4.19e-06 1.96e+03  -3.8 3.17e+00  -0.2 1.00e+00 5.34e-02f  1
 103  1.1885232e+02 3.40e-06 1.57e+03  -3.8 7.21e-01   0.3 1.00e+00 2.40e-01f  1
 104  1.1390851e+02 3.28e-06 1.97e+03  -3.8 4.51e+00  -0.2 1.00e+00 5.00e-02f  1
 105  1.0898669e+02 2.85e-06 1.61e+03  -3.8 9.24e-01   0.2 1.00e+00 2.21e-01f  1
 106  1.0468281e+02 2.60e-06 1.71e+03  -3.8 1.13e+00   0.2 1.00e+00 1.74e-01f  1
 107  1.0067885e+02 2.57e-06 1.77e+03  -3.8 1.41e+01  -0.3 3.26e-01 2.53e-02f  1
 108r 1.0067885e+02 2.57e-06 1.00e+03  -3.8 0.00e+00   0.1 0.00e+00 2.86e-07R  5
 109r 1.0123005e+02 3.15e-06 7.18e+02  -3.8 7.51e-01    -  4.97e-01 2.80e-01f  1
iter    objective    inf_pr   inf_du lg(mu)  ||d||  lg(rg) alpha_du alpha_pr  ls
 110r 1.0189319e+02 2.94e-06 5.59e+02  -3.8 6.94e-02    -  1.27e-02 2.42e-01f  1
 111r 1.0202850e+02 2.91e-06 5.26e+02  -3.8 4.93e-02    -  5.74e-02 5.23e-02f  1
 112r 1.0233193e+02 2.85e-06 4.57e+02  -3.8 4.85e-02    -  3.05e-01 1.13e-01f  1
 113r 1.0429979e+02 2.63e-06 2.65e+02  -3.8 5.26e-02    -  9.80e-01 5.69e-01f  1
 114r 2.0107418e+02 2.89e-06 1.62e+02  -3.8 4.37e-01    -  3.74e-01 1.00e+00f  1
 115r 3.3225037e+02 2.86e-06 1.15e+01  -3.8 3.51e-01    -  9.01e-01 1.00e+00f  1
 116r 1.1755686e+03 2.86e-06 1.31e+00  -3.8 1.34e-01    -  7.80e-01 1.00e+00f  1
 117r 1.3939139e+03 2.86e-06 1.50e-09  -3.8 7.44e-02    -  1.00e+00 1.00e+00f  1
 118r 9.3445099e+02 2.87e-06 5.16e+01  -5.7 6.20e-02    -  9.04e-01 7.17e-01f  1
 119r 8.8884166e+02 2.98e-06 6.86e+01  -5.7 1.02e-02    -  7.95e-01 6.41e-01f  1
iter    objective    inf_pr   inf_du lg(mu)  ||d||  lg(rg) alpha_du alpha_pr  ls
 120r 7.8603100e+02 3.02e-06 6.47e+01  -5.7 1.72e-02    -  7.28e-01 6.30e-01f  1
 121r 6.6658283e+02 3.04e-06 3.10e+01  -5.7 1.92e-02    -  7.25e-01 6.82e-01f  1
 122r 5.4850119e+02 3.05e-06 1.86e-11  -5.7 1.33e-02    -  1.00e+00 1.00e+00f  1
 123r 4.0544511e+02 3.05e-06 3.57e+01  -8.6 2.14e-02    -  7.26e-01 6.38e-01f  1
 124r 4.0036719e+02 3.05e-06 1.97e+02  -8.6 2.56e-03    -  7.84e-01 4.69e-01f  1
 125r 3.6671441e+02 3.05e-06 1.46e+02  -8.6 4.39e-03    -  4.15e-01 8.85e-01f  1
 126r 3.3471174e+02 3.05e-06 2.96e+01  -8.6 4.33e-03    -  7.83e-01 7.37e-01f  1
Reallocating memory for MA57: lfact (7450794)
 127r 2.6376543e+02 3.05e-06 9.60e-01  -8.6 7.11e-03    -  9.67e-01 9.87e-01f  1
Reallocating memory for MA57: lfact (23024617)

Number of Iterations....: 127

                                   (scaled)                 (unscaled)
Objective...............:   2.0351528983855243e+02    2.0351528983855243e+02
Dual infeasibility......:   1.0003494009769447e+01    1.0003494009769447e+01
Constraint violation....:   3.0520417345463212e-06    3.0520417345463212e-06
Complementarity.........:   4.5023196751603714e-09    4.5023196751603714e-09
Overall NLP error.......:   1.0003494009769447e+01    1.0003494009769447e+01


Number of objective function evaluations             = 134
Number of objective gradient evaluations             = 110
Number of equality constraint evaluations            = 134
Number of inequality constraint evaluations          = 0
Number of equality constraint Jacobian evaluations   = 130
Number of inequality constraint Jacobian evaluations = 0
Number of Lagrangian Hessian evaluations             = 128
Total CPU secs in IPOPT (w/o function evaluations)   =     47.718
Total CPU secs in NLP function evaluations           =      7.221

EXIT: Converged to a point of local infeasibility. Problem may be infeasible.

************************ CUTEst statistics ************************


 Package used            :  IPOPT
 Problem                 :  A2NNDNIL  
 # variables             =           60012
 # constraints           =           20004
 # objective functions   =        0.2450000E+03
 # objective gradients   =        0.1110000E+03
 # objective Hessians    =        0.1280000E+03
 # Hessian-vector prdct  =        0.0000000E+00
 # constraints functions =        0.2660000E+03
 # constraints gradients =        0.1320000E+03
 # constraints Hessians  =        0.1280000E+03
 Exit code               =               2
 Final f                 =        2.0351528983855243D+02
 Bounds feasibility      =        9.9974940944037795D-09
 Set up time             =            0.71 seconds
 Solve time              =          111.43 seconds


******************************************************************

